LAMMPS (22 Sep 2017)
# Testsystem for core-shell model compared to Mitchel and Finchham
# Shamelessly copied from in.coreshell.dsf but this script uses Wolf summation.

# ------------------------ INITIALIZATION ----------------------------

units 		metal
dimension	3
boundary	p	p	p
atom_style	full

# ----------------------- ATOM DEFINITION ----------------------------

fix csinfo all property/atom i_CSID
read_data data.coreshell fix csinfo NULL CS-Info
  orthogonal box = (0 0 0) to (24.096 24.096 24.096)
  1 by 2 by 2 MPI processor grid
  reading atoms ...
  432 atoms
  scanning bonds ...
  1 = max bonds/atom
  reading bonds ...
  216 bonds
  1 = max # of 1-2 neighbors
  0 = max # of 1-3 neighbors
  0 = max # of 1-4 neighbors
  1 = max # of special neighbors

group cores type 1 2
216 atoms in group cores
group shells type 3 4
216 atoms in group shells

neighbor 2.0 bin
comm_modify vel yes

# ------------------------ FORCE FIELDS ------------------------------

pair_style   born/coul/wolf/cs 0.1 20.0 20.0    # A, rho, sigma=0, C, D
pair_coeff   * *      0.0 1.000   0.00  0.00   0.00
pair_coeff   3 3    487.0 0.23768 0.00  1.05   0.50 #Na-Na
pair_coeff   3 4 145134.0 0.23768 0.00  6.99   8.70 #Na-Cl
pair_coeff   4 4 405774.0 0.23768 0.00 72.40 145.40 #Cl-Cl

bond_style harmonic
bond_coeff 1 63.014 0.0
bond_coeff 2 25.724 0.0

# ------------------------ Equilibration Run -------------------------------

reset_timestep 0

thermo 50
thermo_style custom step etotal pe ke temp press              epair evdwl ecoul elong ebond fnorm fmax vol

compute CSequ all temp/cs cores shells

# output via chunk method

#compute prop all property/atom i_CSID
#compute cs_chunk all chunk/atom c_prop
#compute cstherm all temp/chunk cs_chunk temp internal com yes cdof 3.0
#fix ave_chunk all ave/time 100 1 100 c_cstherm file chunk.dump mode vector

thermo_modify temp CSequ

# velocity bias option

velocity all create 1427 134 dist gaussian mom yes rot no bias yes temp CSequ
Neighbor list info ...
  update every 1 steps, delay 10 steps, check yes
  max neighbors/atom: 2000, page size: 100000
  master list distance cutoff = 22
  ghost atom cutoff = 22
  binsize = 11, bins = 3 3 3
  1 neighbor lists, perpetual/occasional/extra = 1 0 0
  (1) pair born/coul/wolf/cs, perpetual
      attributes: half, newton on
      pair build: half/bin/newton
      stencil: half/bin/3d/newton
      bin: standard
velocity all scale 1427 temp CSequ

fix thermoberendsen all temp/berendsen 1427 1427 0.4
fix nve all nve
fix_modify thermoberendsen temp CSequ

# 2 fmsec timestep

timestep 0.002
run 500
Per MPI rank memory allocation (min/avg/max) = 6.881 | 6.881 | 6.881 Mbytes
Step TotEng PotEng KinEng Temp Press E_pair E_vdwl E_coul E_long E_bond Fnorm Fmax Volume 
       0   -637.41039   -677.06805    39.657659         1427   -21302.622   -677.06805    1.6320365   -678.70009            0            0 1.3530839e-14 3.6429193e-15      13990.5 
      50   -635.62704   -667.67108    32.044047    1153.0397   -4532.6842   -669.45828    37.771018    -707.2293            0     1.787201    9.6848095    2.2028349      13990.5 
     100   -632.76343   -662.83014    30.066711    1081.8893   -3493.0827   -664.98212    39.195967   -704.17809            0     2.151977    11.060773    2.1578583      13990.5 
     150   -630.82533   -663.70172    32.876385    1182.9897   -75.706974   -666.12608    46.261038   -712.38712            0    2.4243598    11.746728    2.7663319      13990.5 
     200   -629.15463   -664.55009    35.395466    1273.6337   -1707.9185   -666.88117    41.794868   -708.67604            0     2.331082    10.596229    3.0031523      13990.5 
     250   -627.86625   -662.60876    34.742511    1250.1384   -1263.5726     -665.214    43.005742   -708.21974            0    2.6052329    10.572641     1.841604      13990.5 
     300   -627.10829   -664.12159    37.013298    1331.8481   -1884.8587   -666.39136    40.786141    -707.1775            0    2.2697693    9.4160685    1.2472271      13990.5 
     350    -626.2729   -665.01858    38.745682    1394.1844   -1433.1302   -667.44315    41.864785   -709.30793            0    2.4245625    10.312641    1.9815612      13990.5 
     400   -625.54274   -661.84438    36.301638    1306.2404   -355.45544    -664.4483    44.370671   -708.81897            0    2.6039276    11.076154    2.1819703      13990.5 
     450   -624.88802   -661.12299    36.234964    1303.8413   -2356.6101    -663.6463     39.57847   -703.22477            0     2.523314    9.8995886    1.3113549      13990.5 
     500   -623.86344   -660.20235    36.338906    1307.5814    462.72862    -662.8515    45.983055   -708.83455            0    2.6491489    10.523732    1.6709561      13990.5 
Loop time of 4.63313 on 4 procs for 500 steps with 432 atoms

Performance: 18.648 ns/day, 1.287 hours/ns, 107.919 timesteps/s
99.4% CPU use with 4 MPI tasks x no OpenMP threads

MPI task timing breakdown:
Section |  min time  |  avg time  |  max time  |%varavg| %total
---------------------------------------------------------------
Pair    | 2.8133     | 3.5934     | 4.4255     |  36.3 | 77.56
Bond    | 0.00042245 | 0.00050305 | 0.00059825 |   0.0 |  0.01
Neigh   | 0.0411     | 0.041561   | 0.04202    |   0.2 |  0.90
Comm    | 0.15622    | 0.9884     | 1.7686     |  69.2 | 21.33
Output  | 0.00028311 | 0.00031345 | 0.00040011 |   0.0 |  0.01
Modify  | 0.0039899  | 0.00403    | 0.0040654  |   0.0 |  0.09
Other   |            | 0.004911   |            |       |  0.11

Nlocal:    108 ave 112 max 106 min
Histogram: 2 0 0 1 0 0 0 0 0 1
Nghost:    6531.75 ave 6611 max 6460 min
Histogram: 1 0 0 1 0 1 0 0 0 1
Neighs:    74316.2 ave 75641 max 72780 min
Histogram: 1 0 0 1 0 0 0 0 1 1

Total # of neighbors = 297265
Ave neighs/atom = 688.113
Ave special neighs/atom = 1
Neighbor list builds = 21
Dangerous builds = 0

unfix thermoberendsen

# ------------------------ Dynamic Run -------------------------------

run 1000
Per MPI rank memory allocation (min/avg/max) = 6.884 | 7.01 | 7.138 Mbytes
Step TotEng PotEng KinEng Temp Press E_pair E_vdwl E_coul E_long E_bond Fnorm Fmax Volume 
     500   -623.86344   -660.20235    36.338906    1307.5814    462.72862    -662.8515    45.983055   -708.83455            0    2.6491489    10.523732    1.6709561      13990.5 
     550   -623.95339   -660.07946    36.126069    1299.9229   -362.67288    -662.8047    44.180832   -706.98553            0     2.725239     11.07199    2.0461377      13990.5 
     600   -624.04508   -661.27298    37.227902    1339.5701    110.39823   -663.90927    45.166569   -709.07584            0    2.6362911    11.747923    2.1846828      13990.5 
     650    -623.9608   -661.50573    37.544934    1350.9779   -1594.4701   -663.91531    41.226571   -705.14188            0    2.4095736    10.022027    1.6264014      13990.5 
     700   -624.00658   -663.55636    39.549777    1423.1181    -588.9804   -665.88666    43.124023   -709.01068            0    2.3302979     9.924587    2.1027837      13990.5 
     750   -623.99813   -659.97695    35.978816    1294.6243    -364.1415   -662.75959    43.973556   -706.73315            0     2.782646    11.487832    1.8799695      13990.5 
     800   -624.01235   -661.04908    37.036728    1332.6911   -85.655852   -663.49204    44.570117   -708.06215            0    2.4429547    11.213149    1.6792926      13990.5 
     850   -624.02581   -659.39933    35.373519     1272.844   -1090.9179   -662.11969    42.375064   -704.49476            0    2.7203673    11.214629    2.2907474      13990.5 
     900   -624.09244   -663.33386    39.241421    1412.0225    303.76207   -666.00593    45.332458   -711.33839            0    2.6720667    11.897188    2.0599033      13990.5 
     950   -624.04544   -661.11578    37.070341    1333.9007    1637.6438   -663.61305     48.65892   -712.27197            0      2.49727    12.343774     2.429225      13990.5 
    1000   -623.95457   -661.51816    37.563586    1351.6491   -851.77182   -663.83594    42.813468   -706.64941            0     2.317782    10.251422    1.6922864      13990.5 
    1050   -623.98731   -662.01988    38.032562    1368.5242   -2123.9075   -664.72609    39.917382   -704.64348            0     2.706218     9.600838    1.7365559      13990.5 
    1100    -623.9653   -659.32023    35.354929    1272.1751   -436.90576   -662.14454    44.057776   -706.20232            0    2.8243167    11.267546    2.6807602      13990.5 
    1150   -624.02273   -665.13902    41.116293     1479.486   -128.13268    -667.4769    44.013761   -711.49066            0    2.3378768    10.406604    1.5102324      13990.5 
    1200   -623.97328   -663.08042    39.107135    1407.1905   -539.63284   -665.67946    43.319308   -708.99877            0     2.599042    10.632657    1.4608707      13990.5 
    1250   -623.92529   -661.81902    37.893723    1363.5284    1708.0621   -664.63624    48.396874   -713.03311            0    2.8172251    11.369352    1.8836979      13990.5 
    1300   -623.99283   -662.19734    38.204509    1374.7114   -820.77291   -664.34556    42.656202   -707.00176            0    2.1482151    10.186898    1.7081329      13990.5 
    1350   -623.99798   -658.70752    34.709535    1248.9519    776.28486   -662.01647    46.925412   -708.94188            0    3.3089536    12.457581    2.5027978      13990.5 
    1400   -623.96941   -662.15959    38.190183    1374.1959    880.21756   -664.90452    46.628183    -711.5327            0    2.7449282    11.918894    3.0466188      13990.5 
    1450   -623.95068   -662.25435    38.303671    1378.2795   -391.56711    -664.7631    43.644066   -708.40716            0    2.5087493    10.465803    1.8744864      13990.5 
    1500   -624.00637   -661.48756    37.481185     1348.684    430.69453   -664.32151    45.704366   -710.02587            0    2.8339501    11.650821    2.0752813      13990.5 
Loop time of 6.7003 on 4 procs for 1000 steps with 432 atoms

Performance: 25.790 ns/day, 0.931 hours/ns, 149.247 timesteps/s
99.1% CPU use with 4 MPI tasks x no OpenMP threads

MPI task timing breakdown:
Section |  min time  |  avg time  |  max time  |%varavg| %total
---------------------------------------------------------------
Pair    | 5.9613     | 6.0752     | 6.2064     |   4.1 | 90.67
Bond    | 0.00087095 | 0.00088993 | 0.00091671 |   0.0 |  0.01
Neigh   | 0.06494    | 0.064964   | 0.064987   |   0.0 |  0.97
Comm    | 0.41743    | 0.54863    | 0.6626     |  13.8 |  8.19
Output  | 0.00053867 | 0.00059268 | 0.00074867 |   0.0 |  0.01
Modify  | 0.0013288  | 0.0013592  | 0.0013841  |   0.1 |  0.02
Other   |            | 0.008613   |            |       |  0.13

Nlocal:    108 ave 116 max 102 min
Histogram: 2 0 0 0 0 0 0 1 0 1
Nghost:    6504.5 ave 6624 max 6380 min
Histogram: 1 1 0 0 0 0 0 0 1 1
Neighs:    74267 ave 79230 max 70993 min
Histogram: 2 0 0 0 0 1 0 0 0 1

Total # of neighbors = 297068
Ave neighs/atom = 687.657
Ave special neighs/atom = 1
Neighbor list builds = 45
Dangerous builds = 0
Total wall time: 0:00:11
